9
2147483647 93 50 62 2 38 42 51 68 
93 2147483647 76 9 39 87 79 15 19 
50 76 2147483647 57 25 69 22 84 67 
62 9 57 2147483647 7 44 60 3 75 
2 39 25 7 2147483647 32 17 2 96 
38 87 69 44 32 2147483647 93 62 26 
42 79 22 60 17 93 2147483647 94 48 
51 15 84 3 2 62 94 2147483647 84 
68 19 67 75 96 26 48 84 2147483647 
